SimulationType        MonteCarlo
NumberOfCycles        2000
PrintEvery            1000


Forcefield local
ContinueAfterCrash      no
WriteBinaryRestartFileEvery 100
CutOff 12.0

Framework 0
FrameworkName HKUST-1
UnitCells 1 1 1 
SurfaceAreaProbeDistance Minimum 

Component 0 MoleculeName             N2
            MoleculeDefinition       local
            SurfaceAreaProbability   1.0
            CreateNumberOfMolecules  0
